10J3M/DAT/10J3MUTL-13.dat
10 3
8.1871 8.1871
2.9527 2.9527
30.431 30.431
36.4994 36.4994
31.1024 31.1024
15.4928 15.4928
20.2531 20.2531
25.4154 25.4154
30.3226 30.3226
4.7298 4.7298
51.3466