10J3M/SOL/10J3MUTL-13.sol
solution status: optimal solution found
objective value:                              70.6238
x#1#1                              0.0347686005941828 	(obj:0)
x#1#3                               0.965231399405817 	(obj:0)
x#2#1                                               1 	(obj:0)
x#3#1                                               1 	(obj:0)
x#4#2                                               1 	(obj:0)
x#5#1                                               1 	(obj:0)
x#6#3                                               1 	(obj:0)
x#7#2                                               1 	(obj:0)
x#8#3                               0.656641760390181 	(obj:0)
x#9#2                               0.765373160583531 	(obj:0)
z                                             70.6238 	(obj:1)
